db/data/289390262233827845254615541522023065.z3.out
-------------------
2500.239820235
